C46
1.0
31.362253 0.000000 0.000000
0.000000 32.300000 0.000000
0.000000 0.000000 20.000000
C
46
direct
0.341498 0.690402 0.500000 C
0.341498 0.614241 0.500000 C
0.409427 0.652322 0.500000 C
0.341498 0.538080 0.500000 C
0.409427 0.576161 0.500000 C
0.477357 0.614241 0.500000 C
0.341498 0.461920 0.500000 C
0.409427 0.500000 0.500000 C
0.477357 0.538080 0.500000 C
0.545286 0.576161 0.500000 C
0.341498 0.385759 0.500000 C
0.409427 0.423839 0.500000 C
0.477357 0.461920 0.500000 C
0.545286 0.500000 0.500000 C
0.613216 0.538080 0.500000 C
0.341498 0.309598 0.500000 C
0.409427 0.347678 0.500000 C
0.477357 0.385759 0.500000 C
0.545286 0.423839 0.500000 C
0.613216 0.461920 0.500000 C
0.681145 0.500000 0.500000 C
0.318855 0.652322 0.500000 C
0.386784 0.690402 0.500000 C
0.318855 0.576161 0.500000 C
0.386784 0.614241 0.500000 C
0.454714 0.652322 0.500000 C
0.318855 0.500000 0.500000 C
0.386784 0.538080 0.500000 C
0.454714 0.576161 0.500000 C
0.522643 0.614241 0.500000 C
0.318855 0.423839 0.500000 C
0.386784 0.461920 0.500000 C
0.454714 0.500000 0.500000 C
0.522643 0.538080 0.500000 C
0.590573 0.576161 0.500000 C
0.318855 0.347678 0.500000 C
0.386784 0.385759 0.500000 C
0.454714 0.423839 0.500000 C
0.522643 0.461920 0.500000 C
0.590573 0.500000 0.500000 C
0.658502 0.538080 0.500000 C
0.386784 0.309598 0.500000 C
0.454714 0.347678 0.500000 C
0.522643 0.385759 0.500000 C
0.590573 0.423839 0.500000 C
0.658502 0.461920 0.500000 C
