C14
1.0
8.610000 2.130422 -0.000000
-4.920000 -4.260845 -0.000000
-0.000000 -0.000000 -23.350000
C
14
direct
0.800000 0.400000 0.428266 C
0.400000 0.200000 0.428266 C
0.600000 0.800000 0.428266 C
0.000000 0.000000 0.428266 C
0.200000 0.600000 0.428266 C
0.733333 0.533333 0.428266 C
0.333333 0.333333 0.428266 C
0.533333 0.933333 0.428266 C
0.933333 0.133333 0.428266 C
0.133333 0.733333 0.428266 C
0.000000 0.000000 0.571734 C
-0.028571 0.342857 0.571734 C
0.161905 0.390476 0.571734 C
0.190476 0.047619 0.571734 C
